============================[ Problem Statistics ]=============================|                                                                             ||  Number of variables:          4242                                         ||  Number of clauses:           10016                                         ||  Parse time:                   0.41 s                                       ||                                                                             |============================[ Search Statistics ]==============================| Conflicts |          ORIGINAL         |          LEARNT          | Progress ||           |    Vars  Clauses Literals |    Limit  Clauses Lit/Cl |          |===============================================================================|       100 |    1591     6221   645012 |     2281      100     53 | 62.501 % |===============================================================================restarts              : 3conflicts             : 232            (380 /sec)decisions             : 497            (0.00 % random) (813 /sec)propagations          : 11714          (19172 /sec)conflict literals     : 17161          (94.98 % deleted)CPU time              : 0.611 sSATISFIABLE